
Gurobi 7.5.2 (linux64, Python) logging started Wed 18 Apr 2018 11:19:53 AM EDT

Academic license - for non-commercial use only
Read MPS format model from file test/smps/sizes10.mps
Reading time = 0.01 seconds
SIZES: 62 rows, 150 columns, 365 nonzeros
Read MPS format model from file test/smps/sizes10.mps
Reading time = 0.00 seconds
SIZES: 62 rows, 150 columns, 365 nonzeros

Gurobi 7.5.2 (linux64, Python) logging started Wed 18 Apr 2018 06:45:38 PM EDT

Academic license - for non-commercial use only
Read MPS format model from file test/smps/sizes10.mps
Reading time = 0.00 seconds
SIZES: 62 rows, 150 columns, 365 nonzeros

Gurobi 7.5.2 (linux64, Python) logging started Wed 18 Apr 2018 07:32:00 PM EDT

Academic license - for non-commercial use only
Read MPS format model from file test/smps/sizes10.mps
Reading time = 0.01 seconds
SIZES: 62 rows, 150 columns, 365 nonzeros
Read MPS format model from file test/smps/sizes10.mps
Reading time = 0.00 seconds
SIZES: 62 rows, 150 columns, 365 nonzeros
Read MPS format model from file test/smps/sizes10.mps
Reading time = 0.02 seconds
SIZES: 62 rows, 150 columns, 365 nonzeros
Read MPS format model from file test/smps/sizes10.mps
Reading time = 0.00 seconds
SIZES: 62 rows, 150 columns, 365 nonzeros
Read MPS format model from file test/smps/sizes10.mps
Reading time = 0.00 seconds
SIZES: 62 rows, 150 columns, 365 nonzeros
Read MPS format model from file test/smps/sizes10.mps
Reading time = 0.00 seconds
SIZES: 62 rows, 150 columns, 365 nonzeros
Read MPS format model from file test/smps/sizes10.mps
Reading time = 0.00 seconds
SIZES: 62 rows, 150 columns, 365 nonzeros
